units metal
boundary p p p
atom_style atomic
read_data data/data.water

pair_style vashishta
pair_coeff	* * H2O.vashishta O H
#pair_style  usc
#pair_coeff  * * SiO2H2O.vashishta Si O H
#pair_modify coord 2 1 2.0 0.3
#pair_modify coord 2 3 1.4 0.3

thermo 1
thermo_style custom step time temp press etotal pxy pxz pyz spcpu cpuremain

timestep 0.0005
minimize 1e-6 1e-6 1000 1000

write_data data/data.minimised
